param u:=
	1 50
	2 65
	3 40
	4 70
	5 55
;
param d:=
	1 15
	2 12
	3 32
	4 18
	5 10
;
param a :	
		1	2	3	4	:=
	1	1	1	0	1
	2	4	2	0	1
	3	2	1	1	2
	4	0	0	2	0
	5	1	1	0	1
;
param m:=
	1 80
	2 75
	3 10
	4 30
;
